WARNING: for repeatability, setting FPU to use double precision
============================[ Problem Statistics ]=============================
|                                                                             |
|  Number of variables:           100                                         |
|  Number of clauses:             449                                         |
|  Parse time:                   0.00 s                                       |
|  Eliminated clauses:           0.00 Mb                                      |
|  Simplification time:          0.00 s                                       |
|                                                                             |
============================[ Search Statistics ]==============================
| Conflicts |          ORIGINAL         |          LEARNT          | Progress |
|           |    Vars  Clauses Literals |    Limit  Clauses Lit/Cl |          |
===============================================================================
|       100 |      99      447     1345 |      163      100      7 |  0.010 % |
|       250 |      99      447     1345 |      180      163      6 |  0.030 % |
===============================================================================
restarts              : 3
conflicts             : 316            (89039 /sec)
decisions             : 369            (0.00 % random) (103973 /sec)
propagations          : 7232           (2037757 /sec)
conflict literals     : 1870           (25.14 % deleted)
Memory used           : 13.00 MB
CPU time              : 0.003549 s

SATISFIABLE
